
%FILE DATA:	Soccer Computational Problem for MiniZinc Models	%
%AUTHOR:	Jack Wall	%
%CONTACT:  	116397063@umail.ucc.ie			%
%LAST UPDATE:	03/12/2020, 11:03:48						%
%DESCRIPTION: 	147 games played with 35 games left				%


n=14; %number of teams

%Games to play
games=[|10,9|14,6|13,4|12,6|4,14|12,8|14,11|10,7|6,14|7,10|3,10|12,1|4,12|9,2|13,11|1,14|12,4|9,14|13,10|2,1|12,7|14,1|2,5|8,14|8,6|7,3|1,3|2,7|6,4|4,8|11,14|10,6|8,9|2,8|1,6|];

%Initial points
iPoints=[28,33,31,32,32,34,23,22,43,18,31,30,19,17];

%POSITION CONSTRAINTS
% [|teamID, operator, position|...]
% operators index:
%  1 for =  operator
%  2 for >  operator
%  3 for >= operator
%  4 for <  operator
%  5 for <= operator
positionConstraints=[|9,3,1|6,3,2|];